Route #1: 1 16 14 31 6 1
Route #2: 1 27 12 37 18 22 24 35 23 19 1
Route #3: 1 25 4 30 29 10 13 39 1
Route #4: 1 21 33 28 11 17 5 8 9 1
Route #5: 1 32 15 36 26 3 20 34 38 1
Route #6: 1 7 2 1
cost 938.2680562022427